(set-logic QF_LRA)
(declare-fun fluent_robot_at_r0_p0@0 () Bool)
(declare-fun fluent_robot_at_r0_p1@0 () Bool)
(declare-fun parameter_unload_at_depot_r@1 () Real)
(declare-fun fluent_robot_at_r0_p2@0 () Bool)
(declare-fun fluent_robot_free_r0@0 () Bool)
(declare-fun parameter_unload_at_depot_pallet@1 () Real)
(declare-fun fluent_pallet_at_plt0_p0@0 () Bool)
(declare-fun fluent_pallet_at_plt1_p0@0 () Bool)
(declare-fun fluent_pallet_at_plt0_p1@0 () Bool)
(declare-fun fluent_pallet_at_plt1_p1@0 () Bool)
(declare-fun fluent_pallet_at_plt0_p2@0 () Bool)
(declare-fun fluent_pallet_at_plt1_p2@0 () Bool)
(declare-fun fluent_battery_level_r0@0 () Real)
(declare-fun fluent_position_free_p0@0 () Bool)
(declare-fun fluent_position_free_p1@0 () Bool)
(declare-fun fluent_position_free_p2@0 () Bool)
(declare-fun dur_make_treatment@1 () Real)
(declare-fun t@1 () Real)
(declare-fun fluent_robot_has_r0_plt0@0 () Bool)
(declare-fun fluent_robot_has_r0_plt1@0 () Bool)
(declare-fun fluent_ready_plt0_p0_t0@0 () Bool)
(declare-fun fluent_ready_plt1_p0_t0@0 () Bool)
(declare-fun fluent_ready_plt0_p1_t0@0 () Bool)
(declare-fun fluent_ready_plt1_p1_t0@0 () Bool)
(declare-fun fluent_ready_plt0_p2_t0@0 () Bool)
(declare-fun fluent_ready_plt1_p2_t0@0 () Bool)
(declare-fun parameter_make_treatment_t@1 () Real)
(declare-fun parameter_make_treatment_pallet@1 () Real)
(declare-fun parameter_make_treatment_r@1 () Real)
(declare-fun fluent_treated_plt0_t0@0 () Bool)
(declare-fun fluent_treated_plt1_t0@0 () Bool)
(declare-fun parameter_make_treatment_pos@1 () Real)
(declare-fun act_move@1 () Bool)
(declare-fun parameter_move_topos@1 () Real)
(declare-fun parameter_move_frompos@1 () Real)
(declare-fun parameter_move_r@1 () Real)
(declare-fun fluent_robot_at_r0_p0@1 () Bool)
(declare-fun fluent_robot_at_r0_p1@1 () Bool)
(declare-fun fluent_robot_at_r0_p2@1 () Bool)
(declare-fun fluent_battery_level_r0@1 () Real)
(declare-fun act_make_treatment@1 () Bool)
(declare-fun act_load@1 () Bool)
(declare-fun parameter_load_t@1 () Real)
(declare-fun parameter_load_pos@1 () Real)
(declare-fun parameter_load_pallet@1 () Real)
(declare-fun parameter_load_r@1 () Real)
(declare-fun fluent_robot_free_r0@1 () Bool)
(declare-fun fluent_ready_plt0_p0_t0@1 () Bool)
(declare-fun fluent_ready_plt1_p0_t0@1 () Bool)
(declare-fun fluent_ready_plt0_p1_t0@1 () Bool)
(declare-fun fluent_ready_plt1_p1_t0@1 () Bool)
(declare-fun fluent_ready_plt0_p2_t0@1 () Bool)
(declare-fun fluent_ready_plt1_p2_t0@1 () Bool)
(declare-fun fluent_pallet_at_plt0_p0@1 () Bool)
(declare-fun fluent_pallet_at_plt1_p0@1 () Bool)
(declare-fun fluent_pallet_at_plt0_p1@1 () Bool)
(declare-fun fluent_pallet_at_plt1_p1@1 () Bool)
(declare-fun fluent_pallet_at_plt0_p2@1 () Bool)
(declare-fun fluent_pallet_at_plt1_p2@1 () Bool)
(declare-fun fluent_robot_has_r0_plt0@1 () Bool)
(declare-fun fluent_robot_has_r0_plt1@1 () Bool)
(declare-fun fluent_treated_plt0_t0@1 () Bool)
(declare-fun fluent_treated_plt1_t0@1 () Bool)
(declare-fun fluent_position_free_p0@1 () Bool)
(declare-fun fluent_position_free_p1@1 () Bool)
(declare-fun fluent_position_free_p2@1 () Bool)
(declare-fun act_load_at_depot@1 () Bool)
(declare-fun parameter_load_at_depot_pos@1 () Real)
(declare-fun parameter_load_at_depot_r@1 () Real)
(declare-fun parameter_load_at_depot_pallet@1 () Real)
(declare-fun act_unload_at_depot@1 () Bool)
(declare-fun parameter_unload_at_depot_pos@1 () Real)
(assert (let ((.def_0 (= parameter_load_t@1 6.0))) (let ((.def_1 (<= fluent_battery_level_r0@1 100.0))) (let ((.def_2 (<= 0.0 fluent_battery_level_r0@1))) (let ((.def_3 (= parameter_load_at_depot_pallet@1 5.0))) (let ((.def_4 (= parameter_load_at_depot_pallet@1 4.0))) (let ((.def_5 (or .def_4 .def_3))) (let ((.def_6 (= parameter_load_at_depot_r@1 0.0))) (let ((.def_7 (= parameter_load_at_depot_pos@1 3.0))) (let ((.def_8 (= parameter_load_at_depot_pos@1 2.0))) (let ((.def_9 (= parameter_load_at_depot_pos@1 1.0))) (let ((.def_10 (or .def_9 .def_8 .def_7))) (let ((.def_11 (= parameter_move_r@1 0.0))) (let ((.def_12 (= parameter_move_frompos@1 3.0))) (let ((.def_13 (= parameter_move_frompos@1 2.0))) (let ((.def_14 (= parameter_move_frompos@1 1.0))) (let ((.def_15 (or .def_14 .def_13 .def_12))) (let ((.def_16 (= parameter_move_topos@1 3.0))) (let ((.def_17 (= parameter_move_topos@1 2.0))) (let ((.def_18 (= parameter_move_topos@1 1.0))) (let ((.def_19 (or .def_18 .def_17 .def_16))) (let ((.def_20 (= parameter_make_treatment_pos@1 3.0))) (let ((.def_21 (= parameter_make_treatment_pos@1 2.0))) (let ((.def_22 (= parameter_make_treatment_pos@1 1.0))) (let ((.def_23 (or .def_22 .def_21 .def_20))) (let ((.def_24 (= parameter_make_treatment_r@1 0.0))) (let ((.def_25 (= parameter_make_treatment_pallet@1 5.0))) (let ((.def_26 (= parameter_make_treatment_pallet@1 4.0))) (let ((.def_27 (or .def_26 .def_25))) (let ((.def_28 (= parameter_make_treatment_t@1 6.0))) (let ((.def_29 (= parameter_load_r@1 0.0))) (let ((.def_30 (= parameter_unload_at_depot_pallet@1 5.0))) (let ((.def_31 (= parameter_unload_at_depot_pallet@1 4.0))) (let ((.def_32 (or .def_31 .def_30))) (let ((.def_33 (= parameter_load_pallet@1 5.0))) (let ((.def_34 (= parameter_load_pallet@1 4.0))) (let ((.def_35 (or .def_34 .def_33))) (let ((.def_36 (= parameter_unload_at_depot_r@1 0.0))) (let ((.def_37 (= parameter_load_pos@1 3.0))) (let ((.def_38 (= parameter_load_pos@1 2.0))) (let ((.def_39 (= parameter_load_pos@1 1.0))) (let ((.def_40 (or .def_39 .def_38 .def_37))) (let ((.def_41 (= parameter_unload_at_depot_pos@1 3.0))) (let ((.def_42 (= parameter_unload_at_depot_pos@1 2.0))) (let ((.def_43 (= parameter_unload_at_depot_pos@1 1.0))) (let ((.def_44 (or .def_43 .def_42 .def_41))) (let ((.def_45 (and act_move@1 true .def_11))) (let ((.def_46 (= fluent_battery_level_r0@0 fluent_battery_level_r0@1))) (let ((.def_47 (not .def_46))) (let ((.def_48 (=> .def_47 .def_45))) (let ((.def_49 (and act_make_treatment@1 true .def_25 .def_20))) (let ((.def_50 (and act_unload_at_depot@1 true .def_30 .def_41))) (let ((.def_51 (and .def_50 .def_49))) (let ((.def_52 (not .def_51))) (let ((.def_53 (and act_load_at_depot@1 true .def_3 .def_7))) (let ((.def_54 (and .def_53 .def_49))) (let ((.def_55 (not .def_54))) (let ((.def_56 (and .def_53 .def_50))) (let ((.def_57 (not .def_56))) (let ((.def_58 (and act_load@1 true .def_33 .def_37))) (let ((.def_59 (and .def_58 .def_49))) (let ((.def_60 (not .def_59))) (let ((.def_61 (and .def_58 .def_50))) (let ((.def_62 (not .def_61))) (let ((.def_63 (and .def_58 .def_53))) (let ((.def_64 (not .def_63))) (let ((.def_65 (or .def_58 .def_53 .def_50 .def_49))) (let ((.def_66 (= fluent_pallet_at_plt1_p2@0 fluent_pallet_at_plt1_p2@1))) (let ((.def_67 (not .def_66))) (let ((.def_68 (=> .def_67 .def_65))) (let ((.def_69 (and act_make_treatment@1 true .def_26 .def_20))) (let ((.def_70 (and act_unload_at_depot@1 true .def_31 .def_41))) (let ((.def_71 (and .def_70 .def_69))) (let ((.def_72 (not .def_71))) (let ((.def_73 (and act_load_at_depot@1 true .def_4 .def_7))) (let ((.def_74 (and .def_73 .def_69))) (let ((.def_75 (not .def_74))) (let ((.def_76 (and .def_73 .def_70))) (let ((.def_77 (not .def_76))) (let ((.def_78 (and act_load@1 true .def_34 .def_37))) (let ((.def_79 (and .def_78 .def_69))) (let ((.def_80 (not .def_79))) (let ((.def_81 (and .def_78 .def_70))) (let ((.def_82 (not .def_81))) (let ((.def_83 (and .def_78 .def_73))) (let ((.def_84 (not .def_83))) (let ((.def_85 (or .def_78 .def_73 .def_70 .def_69))) (let ((.def_86 (= fluent_pallet_at_plt0_p2@0 fluent_pallet_at_plt0_p2@1))) (let ((.def_87 (not .def_86))) (let ((.def_88 (=> .def_87 .def_85))) (let ((.def_89 (and act_make_treatment@1 true .def_25 .def_21))) (let ((.def_90 (and act_unload_at_depot@1 true .def_30 .def_42))) (let ((.def_91 (and .def_90 .def_89))) (let ((.def_92 (not .def_91))) (let ((.def_93 (and act_load_at_depot@1 true .def_3 .def_8))) (let ((.def_94 (and .def_93 .def_89))) (let ((.def_95 (not .def_94))) (let ((.def_96 (and .def_93 .def_90))) (let ((.def_97 (not .def_96))) (let ((.def_98 (and act_load@1 true .def_33 .def_38))) (let ((.def_99 (and .def_98 .def_89))) (let ((.def_100 (not .def_99))) (let ((.def_101 (and .def_98 .def_90))) (let ((.def_102 (not .def_101))) (let ((.def_103 (and .def_98 .def_93))) (let ((.def_104 (not .def_103))) (let ((.def_105 (or .def_98 .def_93 .def_90 .def_89))) (let ((.def_106 (= fluent_pallet_at_plt1_p1@0 fluent_pallet_at_plt1_p1@1))) (let ((.def_107 (not .def_106))) (let ((.def_108 (=> .def_107 .def_105))) (let ((.def_109 (and act_make_treatment@1 true .def_26 .def_21))) (let ((.def_110 (and act_unload_at_depot@1 true .def_31 .def_42))) (let ((.def_111 (and .def_110 .def_109))) (let ((.def_112 (not .def_111))) (let ((.def_113 (and act_load_at_depot@1 true .def_4 .def_8))) (let ((.def_114 (and .def_113 .def_109))) (let ((.def_115 (not .def_114))) (let ((.def_116 (and .def_113 .def_110))) (let ((.def_117 (not .def_116))) (let ((.def_118 (and act_load@1 true .def_34 .def_38))) (let ((.def_119 (and .def_118 .def_109))) (let ((.def_120 (not .def_119))) (let ((.def_121 (and .def_118 .def_110))) (let ((.def_122 (not .def_121))) (let ((.def_123 (and .def_118 .def_113))) (let ((.def_124 (not .def_123))) (let ((.def_125 (or .def_118 .def_113 .def_110 .def_109))) (let ((.def_126 (= fluent_pallet_at_plt0_p1@0 fluent_pallet_at_plt0_p1@1))) (let ((.def_127 (not .def_126))) (let ((.def_128 (=> .def_127 .def_125))) (let ((.def_129 (and act_make_treatment@1 true .def_25 .def_22))) (let ((.def_130 (and act_unload_at_depot@1 true .def_30 .def_43))) (let ((.def_131 (and .def_130 .def_129))) (let ((.def_132 (not .def_131))) (let ((.def_133 (and act_load_at_depot@1 true .def_3 .def_9))) (let ((.def_134 (and .def_133 .def_129))) (let ((.def_135 (not .def_134))) (let ((.def_136 (and .def_133 .def_130))) (let ((.def_137 (not .def_136))) (let ((.def_138 (and act_load@1 true .def_33 .def_39))) (let ((.def_139 (and .def_138 .def_129))) (let ((.def_140 (not .def_139))) (let ((.def_141 (and .def_138 .def_130))) (let ((.def_142 (not .def_141))) (let ((.def_143 (and .def_138 .def_133))) (let ((.def_144 (not .def_143))) (let ((.def_145 (or .def_138 .def_133 .def_130 .def_129))) (let ((.def_146 (= fluent_pallet_at_plt1_p0@0 fluent_pallet_at_plt1_p0@1))) (let ((.def_147 (not .def_146))) (let ((.def_148 (=> .def_147 .def_145))) (let ((.def_149 (and act_make_treatment@1 true .def_26 .def_22))) (let ((.def_150 (and act_unload_at_depot@1 true .def_31 .def_43))) (let ((.def_151 (and .def_150 .def_149))) (let ((.def_152 (not .def_151))) (let ((.def_153 (and act_load_at_depot@1 true .def_4 .def_9))) (let ((.def_154 (and .def_153 .def_149))) (let ((.def_155 (not .def_154))) (let ((.def_156 (and .def_153 .def_150))) (let ((.def_157 (not .def_156))) (let ((.def_158 (and act_load@1 true .def_34 .def_39))) (let ((.def_159 (and .def_158 .def_149))) (let ((.def_160 (not .def_159))) (let ((.def_161 (and .def_158 .def_150))) (let ((.def_162 (not .def_161))) (let ((.def_163 (and .def_158 .def_153))) (let ((.def_164 (not .def_163))) (let ((.def_165 (or .def_158 .def_153 .def_150 .def_149))) (let ((.def_166 (= fluent_pallet_at_plt0_p0@0 fluent_pallet_at_plt0_p0@1))) (let ((.def_167 (not .def_166))) (let ((.def_168 (=> .def_167 .def_165))) (let ((.def_169 (and act_load@1 true .def_33 .def_0))) (let ((.def_170 (= fluent_treated_plt1_t0@0 fluent_treated_plt1_t0@1))) (let ((.def_171 (not .def_170))) (let ((.def_172 (=> .def_171 .def_169))) (let ((.def_173 (and act_load@1 true .def_34 .def_0))) (let ((.def_174 (= fluent_treated_plt0_t0@0 fluent_treated_plt0_t0@1))) (let ((.def_175 (not .def_174))) (let ((.def_176 (=> .def_175 .def_173))) (let ((.def_177 (and act_make_treatment@1 true .def_20))) (let ((.def_178 (and act_load@1 true .def_37))) (let ((.def_179 (and .def_178 .def_177))) (let ((.def_180 (not .def_179))) (let ((.def_181 (or .def_178 .def_177))) (let ((.def_182 (= fluent_position_free_p2@0 fluent_position_free_p2@1))) (let ((.def_183 (not .def_182))) (let ((.def_184 (=> .def_183 .def_181))) (let ((.def_185 (and act_make_treatment@1 true .def_21))) (let ((.def_186 (and act_load@1 true .def_38))) (let ((.def_187 (and .def_186 .def_185))) (let ((.def_188 (not .def_187))) (let ((.def_189 (or .def_186 .def_185))) (let ((.def_190 (= fluent_position_free_p1@0 fluent_position_free_p1@1))) (let ((.def_191 (not .def_190))) (let ((.def_192 (=> .def_191 .def_189))) (let ((.def_193 (and act_make_treatment@1 true .def_22))) (let ((.def_194 (and act_load@1 true .def_39))) (let ((.def_195 (and .def_194 .def_193))) (let ((.def_196 (not .def_195))) (let ((.def_197 (or .def_194 .def_193))) (let ((.def_198 (= fluent_position_free_p0@0 fluent_position_free_p0@1))) (let ((.def_199 (not .def_198))) (let ((.def_200 (=> .def_199 .def_197))) (let ((.def_201 (+ t@1 2.0))) (let ((.def_202 (= t@1 .def_201))) (let ((.def_203 (and act_make_treatment@1 true .def_202 .def_25 .def_20 .def_28))) (let ((.def_204 (and act_load@1 true .def_33 .def_37 .def_0))) (let ((.def_205 (and .def_204 .def_203))) (let ((.def_206 (not .def_205))) (let ((.def_207 (or .def_204 .def_203))) (let ((.def_208 (= fluent_ready_plt1_p2_t0@0 fluent_ready_plt1_p2_t0@1))) (let ((.def_209 (not .def_208))) (let ((.def_210 (=> .def_209 .def_207))) (let ((.def_211 (and act_make_treatment@1 true .def_202 .def_26 .def_20 .def_28))) (let ((.def_212 (and act_load@1 true .def_34 .def_37 .def_0))) (let ((.def_213 (and .def_212 .def_211))) (let ((.def_214 (not .def_213))) (let ((.def_215 (or .def_212 .def_211))) (let ((.def_216 (= fluent_ready_plt0_p2_t0@0 fluent_ready_plt0_p2_t0@1))) (let ((.def_217 (not .def_216))) (let ((.def_218 (=> .def_217 .def_215))) (let ((.def_219 (and act_make_treatment@1 true .def_202 .def_25 .def_21 .def_28))) (let ((.def_220 (and act_load@1 true .def_33 .def_38 .def_0))) (let ((.def_221 (and .def_220 .def_219))) (let ((.def_222 (not .def_221))) (let ((.def_223 (or .def_220 .def_219))) (let ((.def_224 (= fluent_ready_plt1_p1_t0@0 fluent_ready_plt1_p1_t0@1))) (let ((.def_225 (not .def_224))) (let ((.def_226 (=> .def_225 .def_223))) (let ((.def_227 (and act_make_treatment@1 true .def_202 .def_26 .def_21 .def_28))) (let ((.def_228 (and act_load@1 true .def_34 .def_38 .def_0))) (let ((.def_229 (and .def_228 .def_227))) (let ((.def_230 (not .def_229))) (let ((.def_231 (or .def_228 .def_227))) (let ((.def_232 (= fluent_ready_plt0_p1_t0@0 fluent_ready_plt0_p1_t0@1))) (let ((.def_233 (not .def_232))) (let ((.def_234 (=> .def_233 .def_231))) (let ((.def_235 (and act_make_treatment@1 true .def_202 .def_25 .def_22 .def_28))) (let ((.def_236 (and act_load@1 true .def_33 .def_39 .def_0))) (let ((.def_237 (and .def_236 .def_235))) (let ((.def_238 (not .def_237))) (let ((.def_239 (or .def_236 .def_235))) (let ((.def_240 (= fluent_ready_plt1_p0_t0@0 fluent_ready_plt1_p0_t0@1))) (let ((.def_241 (not .def_240))) (let ((.def_242 (=> .def_241 .def_239))) (let ((.def_243 (and act_make_treatment@1 true .def_202 .def_26 .def_22 .def_28))) (let ((.def_244 (and act_load@1 true .def_34 .def_39 .def_0))) (let ((.def_245 (and .def_244 .def_243))) (let ((.def_246 (not .def_245))) (let ((.def_247 (or .def_244 .def_243))) (let ((.def_248 (= fluent_ready_plt0_p0_t0@0 fluent_ready_plt0_p0_t0@1))) (let ((.def_249 (not .def_248))) (let ((.def_250 (=> .def_249 .def_247))) (let ((.def_251 (and act_make_treatment@1 true .def_24 .def_25))) (let ((.def_252 (and act_unload_at_depot@1 true .def_36 .def_30))) (let ((.def_253 (and .def_252 .def_251))) (let ((.def_254 (not .def_253))) (let ((.def_255 (and act_load_at_depot@1 true .def_6 .def_3))) (let ((.def_256 (and .def_255 .def_251))) (let ((.def_257 (not .def_256))) (let ((.def_258 (and .def_255 .def_252))) (let ((.def_259 (not .def_258))) (let ((.def_260 (and act_load@1 true .def_29 .def_33))) (let ((.def_261 (and .def_260 .def_251))) (let ((.def_262 (not .def_261))) (let ((.def_263 (and .def_260 .def_252))) (let ((.def_264 (not .def_263))) (let ((.def_265 (and .def_260 .def_255))) (let ((.def_266 (not .def_265))) (let ((.def_267 (or .def_260 .def_255 .def_252 .def_251))) (let ((.def_268 (= fluent_robot_has_r0_plt1@0 fluent_robot_has_r0_plt1@1))) (let ((.def_269 (not .def_268))) (let ((.def_270 (=> .def_269 .def_267))) (let ((.def_271 (and act_make_treatment@1 true .def_24 .def_26))) (let ((.def_272 (and act_unload_at_depot@1 true .def_36 .def_31))) (let ((.def_273 (and .def_272 .def_271))) (let ((.def_274 (not .def_273))) (let ((.def_275 (and act_load_at_depot@1 true .def_6 .def_4))) (let ((.def_276 (and .def_275 .def_271))) (let ((.def_277 (not .def_276))) (let ((.def_278 (and .def_275 .def_272))) (let ((.def_279 (not .def_278))) (let ((.def_280 (and act_load@1 true .def_29 .def_34))) (let ((.def_281 (and .def_280 .def_271))) (let ((.def_282 (not .def_281))) (let ((.def_283 (and .def_280 .def_272))) (let ((.def_284 (not .def_283))) (let ((.def_285 (and .def_280 .def_275))) (let ((.def_286 (not .def_285))) (let ((.def_287 (or .def_280 .def_275 .def_272 .def_271))) (let ((.def_288 (= fluent_robot_has_r0_plt0@0 fluent_robot_has_r0_plt0@1))) (let ((.def_289 (not .def_288))) (let ((.def_290 (=> .def_289 .def_287))) (let ((.def_291 (and act_make_treatment@1 true .def_24))) (let ((.def_292 (and act_unload_at_depot@1 true .def_36))) (let ((.def_293 (and .def_292 .def_291))) (let ((.def_294 (not .def_293))) (let ((.def_295 (and act_load_at_depot@1 true .def_6))) (let ((.def_296 (and .def_295 .def_291))) (let ((.def_297 (not .def_296))) (let ((.def_298 (and .def_295 .def_292))) (let ((.def_299 (not .def_298))) (let ((.def_300 (and act_load@1 true .def_29))) (let ((.def_301 (and .def_300 .def_291))) (let ((.def_302 (not .def_301))) (let ((.def_303 (and .def_300 .def_292))) (let ((.def_304 (not .def_303))) (let ((.def_305 (and .def_300 .def_295))) (let ((.def_306 (not .def_305))) (let ((.def_307 (or .def_300 .def_295 .def_292 .def_291))) (let ((.def_308 (= fluent_robot_free_r0@0 fluent_robot_free_r0@1))) (let ((.def_309 (not .def_308))) (let ((.def_310 (=> .def_309 .def_307))) (let ((.def_311 (and act_move@1 true .def_11 .def_12))) (let ((.def_312 (and act_move@1 true .def_11 .def_16))) (let ((.def_313 (and .def_312 .def_311))) (let ((.def_314 (not .def_313))) (let ((.def_315 (or .def_312 .def_311))) (let ((.def_316 (= fluent_robot_at_r0_p2@0 fluent_robot_at_r0_p2@1))) (let ((.def_317 (not .def_316))) (let ((.def_318 (=> .def_317 .def_315))) (let ((.def_319 (and act_move@1 true .def_11 .def_13))) (let ((.def_320 (and act_move@1 true .def_11 .def_17))) (let ((.def_321 (and .def_320 .def_319))) (let ((.def_322 (not .def_321))) (let ((.def_323 (or .def_320 .def_319))) (let ((.def_324 (= fluent_robot_at_r0_p1@0 fluent_robot_at_r0_p1@1))) (let ((.def_325 (not .def_324))) (let ((.def_326 (=> .def_325 .def_323))) (let ((.def_327 (and act_move@1 true .def_11 .def_14))) (let ((.def_328 (and act_move@1 true .def_11 .def_18))) (let ((.def_329 (and .def_328 .def_327))) (let ((.def_330 (not .def_329))) (let ((.def_331 (or .def_328 .def_327))) (let ((.def_332 (= fluent_robot_at_r0_p0@0 fluent_robot_at_r0_p0@1))) (let ((.def_333 (not .def_332))) (let ((.def_334 (=> .def_333 .def_331))) (let ((.def_335 (and .def_334 .def_330 .def_326 .def_322 .def_318 .def_314 .def_310 .def_306 .def_304 .def_302 .def_299 .def_297 .def_294 .def_290 .def_286 .def_284 .def_282 .def_279 .def_277 .def_274 .def_270 .def_266 .def_264 .def_262 .def_259 .def_257 .def_254 .def_250 .def_246 .def_242 .def_238 .def_234 .def_230 .def_226 .def_222 .def_218 .def_214 .def_210 .def_206 .def_200 .def_196 .def_192 .def_188 .def_184 .def_180 .def_176 .def_172 .def_168 .def_164 .def_162 .def_160 .def_157 .def_155 .def_152 .def_148 .def_144 .def_142 .def_140 .def_137 .def_135 .def_132 .def_128 .def_124 .def_122 .def_120 .def_117 .def_115 .def_112 .def_108 .def_104 .def_102 .def_100 .def_97 .def_95 .def_92 .def_88 .def_84 .def_82 .def_80 .def_77 .def_75 .def_72 .def_68 .def_64 .def_62 .def_60 .def_57 .def_55 .def_52 .def_48))) (let ((.def_336 (= t@1 t@1))) (let ((.def_337 (and act_load_at_depot@1 act_make_treatment@1 .def_336))) (let ((.def_338 (not .def_337))) (let ((.def_339 (and act_make_treatment@1 act_unload_at_depot@1 .def_336))) (let ((.def_340 (not .def_339))) (let ((.def_341 (and act_make_treatment@1 act_move@1 .def_336))) (let ((.def_342 (not .def_341))) (let ((.def_343 (and act_load@1 act_make_treatment@1 .def_336))) (let ((.def_344 (not .def_343))) (let ((.def_345 (and act_load@1 act_move@1 .def_336))) (let ((.def_346 (not .def_345))) (let ((.def_347 (and act_unload_at_depot@1 act_move@1 .def_336))) (let ((.def_348 (not .def_347))) (let ((.def_349 (and act_load_at_depot@1 act_load@1 .def_336))) (let ((.def_350 (not .def_349))) (let ((.def_351 (= .def_201 t@1))) (let ((.def_352 (and act_make_treatment@1 act_load@1 .def_351))) (let ((.def_353 (not .def_352))) (let ((.def_354 (+ t@1 dur_make_treatment@1))) (let ((.def_355 (= .def_354 t@1))) (let ((.def_356 (and act_make_treatment@1 act_load@1 .def_355))) (let ((.def_357 (not .def_356))) (let ((.def_358 (and act_load@1 act_unload_at_depot@1 .def_336))) (let ((.def_359 (not .def_358))) (let ((.def_360 (and act_load_at_depot@1 act_unload_at_depot@1 .def_336))) (let ((.def_361 (not .def_360))) (let ((.def_362 (and act_load_at_depot@1 act_move@1 .def_336))) (let ((.def_363 (not .def_362))) (let ((.def_364 (and .def_363 .def_361 .def_359 .def_357 .def_353 .def_350 .def_348 .def_346 .def_344 .def_342 .def_340 .def_338))) (let ((.def_365 (<= 0.0 t@1))) (let ((.def_366 (and .def_25 .def_22 .def_28))) (let ((.def_367 (ite .def_366 fluent_ready_plt1_p0_t0@1 fluent_ready_plt0_p0_t0@1))) (let ((.def_368 (and .def_26 .def_21 .def_28))) (let ((.def_369 (ite .def_368 fluent_ready_plt0_p1_t0@1 .def_367))) (let ((.def_370 (and .def_25 .def_21 .def_28))) (let ((.def_371 (ite .def_370 fluent_ready_plt1_p1_t0@1 .def_369))) (let ((.def_372 (and .def_26 .def_20 .def_28))) (let ((.def_373 (ite .def_372 fluent_ready_plt0_p2_t0@1 .def_371))) (let ((.def_374 (and .def_25 .def_20 .def_28))) (let ((.def_375 (ite .def_374 fluent_ready_plt1_p2_t0@1 .def_373))) (let ((.def_376 (= .def_375 true))) (let ((.def_377 (=> true .def_376))) (let ((.def_378 (and .def_202 .def_377))) (let ((.def_379 (= fluent_robot_free_r0@1 true))) (let ((.def_380 (=> true .def_379))) (let ((.def_381 (and .def_25 .def_22))) (let ((.def_382 (ite .def_381 fluent_pallet_at_plt1_p0@1 fluent_pallet_at_plt0_p0@1))) (let ((.def_383 (and .def_26 .def_21))) (let ((.def_384 (ite .def_383 fluent_pallet_at_plt0_p1@1 .def_382))) (let ((.def_385 (and .def_25 .def_21))) (let ((.def_386 (ite .def_385 fluent_pallet_at_plt1_p1@1 .def_384))) (let ((.def_387 (and .def_26 .def_20))) (let ((.def_388 (ite .def_387 fluent_pallet_at_plt0_p2@1 .def_386))) (let ((.def_389 (and .def_25 .def_20))) (let ((.def_390 (ite .def_389 fluent_pallet_at_plt1_p2@1 .def_388))) (let ((.def_391 (= .def_390 true))) (let ((.def_392 (=> true .def_391))) (let ((.def_393 (and .def_24 .def_25))) (let ((.def_394 (ite .def_393 fluent_robot_has_r0_plt1@1 fluent_robot_has_r0_plt0@1))) (let ((.def_395 (= .def_394 false))) (let ((.def_396 (=> true .def_395))) (let ((.def_397 (ite .def_21 fluent_position_free_p1@1 fluent_position_free_p0@1))) (let ((.def_398 (ite .def_20 fluent_position_free_p2@1 .def_397))) (let ((.def_399 (= .def_398 false))) (let ((.def_400 (=> true .def_399))) (let ((.def_401 (and .def_336 .def_400 .def_396 .def_392 .def_380))) (let ((.def_402 (ite .def_21 fluent_position_free_p1@0 fluent_position_free_p0@0))) (let ((.def_403 (ite .def_20 fluent_position_free_p2@0 .def_402))) (let ((.def_404 (and .def_25 .def_28))) (let ((.def_405 (ite .def_404 fluent_treated_plt1_t0@0 fluent_treated_plt0_t0@0))) (let ((.def_406 (and .def_405 .def_403))) (let ((.def_407 (<= .def_354 t@1))) (let ((.def_408 (< (- 1.0) .def_354))) (let ((.def_409 (and .def_408 .def_407))) (let ((.def_410 (=> .def_409 .def_406))) (let ((.def_411 (not .def_405))) (let ((.def_412 (ite .def_393 fluent_robot_has_r0_plt1@0 fluent_robot_has_r0_plt0@0))) (let ((.def_413 (and .def_24 .def_21))) (let ((.def_414 (ite .def_413 fluent_robot_at_r0_p1@0 fluent_robot_at_r0_p0@0))) (let ((.def_415 (and .def_24 .def_20))) (let ((.def_416 (ite .def_415 fluent_robot_at_r0_p2@0 .def_414))) (let ((.def_417 (and .def_21 .def_28))) (let ((.def_418 (ite .def_417 false true))) (let ((.def_419 (and .def_20 .def_28))) (let ((.def_420 (ite .def_419 false .def_418))) (let ((.def_421 (and .def_420 .def_403 .def_416 .def_412 .def_411))) (let ((.def_422 (<= t@1 t@1))) (let ((.def_423 (< (- 1.0) t@1))) (let ((.def_424 (and .def_423 .def_422))) (let ((.def_425 (=> .def_424 .def_421))) (let ((.def_426 (<= dur_make_treatment@1 4.0))) (let ((.def_427 (<= 4.0 dur_make_treatment@1))) (let ((.def_428 (and .def_427 .def_426))) (let ((.def_429 (and .def_428 .def_407 .def_425 .def_410 .def_401 .def_378))) (let ((.def_430 (=> act_make_treatment@1 .def_429))) (let ((.def_431 (and .def_36 .def_30))) (let ((.def_432 (ite .def_431 fluent_robot_has_r0_plt1@1 fluent_robot_has_r0_plt0@1))) (let ((.def_433 (= .def_432 false))) (let ((.def_434 (=> true .def_433))) (let ((.def_435 (and .def_30 .def_43))) (let ((.def_436 (ite .def_435 fluent_pallet_at_plt1_p0@1 fluent_pallet_at_plt0_p0@1))) (let ((.def_437 (and .def_31 .def_42))) (let ((.def_438 (ite .def_437 fluent_pallet_at_plt0_p1@1 .def_436))) (let ((.def_439 (and .def_30 .def_42))) (let ((.def_440 (ite .def_439 fluent_pallet_at_plt1_p1@1 .def_438))) (let ((.def_441 (and .def_31 .def_41))) (let ((.def_442 (ite .def_441 fluent_pallet_at_plt0_p2@1 .def_440))) (let ((.def_443 (and .def_30 .def_41))) (let ((.def_444 (ite .def_443 fluent_pallet_at_plt1_p2@1 .def_442))) (let ((.def_445 (= .def_444 true))) (let ((.def_446 (=> true .def_445))) (let ((.def_447 (ite .def_431 fluent_robot_has_r0_plt1@0 fluent_robot_has_r0_plt0@0))) (let ((.def_448 (and .def_36 .def_42))) (let ((.def_449 (ite .def_448 fluent_robot_at_r0_p1@0 fluent_robot_at_r0_p0@0))) (let ((.def_450 (and .def_36 .def_41))) (let ((.def_451 (ite .def_450 fluent_robot_at_r0_p2@0 .def_449))) (let ((.def_452 (ite .def_42 false false))) (let ((.def_453 (ite .def_41 true .def_452))) (let ((.def_454 (and .def_453 .def_451 .def_447 .def_446 .def_380 .def_434))) (let ((.def_455 (=> act_unload_at_depot@1 .def_454))) (let ((.def_456 (and .def_3 .def_9))) (let ((.def_457 (ite .def_456 fluent_pallet_at_plt1_p0@1 fluent_pallet_at_plt0_p0@1))) (let ((.def_458 (and .def_4 .def_8))) (let ((.def_459 (ite .def_458 fluent_pallet_at_plt0_p1@1 .def_457))) (let ((.def_460 (and .def_3 .def_8))) (let ((.def_461 (ite .def_460 fluent_pallet_at_plt1_p1@1 .def_459))) (let ((.def_462 (and .def_4 .def_7))) (let ((.def_463 (ite .def_462 fluent_pallet_at_plt0_p2@1 .def_461))) (let ((.def_464 (and .def_3 .def_7))) (let ((.def_465 (ite .def_464 fluent_pallet_at_plt1_p2@1 .def_463))) (let ((.def_466 (= .def_465 false))) (let ((.def_467 (=> true .def_466))) (let ((.def_468 (and .def_6 .def_3))) (let ((.def_469 (ite .def_468 fluent_robot_has_r0_plt1@1 fluent_robot_has_r0_plt0@1))) (let ((.def_470 (= .def_469 true))) (let ((.def_471 (=> true .def_470))) (let ((.def_472 (= fluent_robot_free_r0@1 false))) (let ((.def_473 (=> true .def_472))) (let ((.def_474 (ite .def_456 fluent_pallet_at_plt1_p0@0 fluent_pallet_at_plt0_p0@0))) (let ((.def_475 (ite .def_458 fluent_pallet_at_plt0_p1@0 .def_474))) (let ((.def_476 (ite .def_460 fluent_pallet_at_plt1_p1@0 .def_475))) (let ((.def_477 (ite .def_462 fluent_pallet_at_plt0_p2@0 .def_476))) (let ((.def_478 (ite .def_464 fluent_pallet_at_plt1_p2@0 .def_477))) (let ((.def_479 (and .def_6 .def_8))) (let ((.def_480 (ite .def_479 fluent_robot_at_r0_p1@0 fluent_robot_at_r0_p0@0))) (let ((.def_481 (and .def_6 .def_7))) (let ((.def_482 (ite .def_481 fluent_robot_at_r0_p2@0 .def_480))) (let ((.def_483 (ite .def_8 false false))) (let ((.def_484 (ite .def_7 true .def_483))) (let ((.def_485 (and .def_484 .def_482 fluent_robot_free_r0@0 .def_478 .def_473 .def_471 .def_467))) (let ((.def_486 (=> act_load_at_depot@1 .def_485))) (let ((.def_487 (ite .def_38 fluent_position_free_p1@1 fluent_position_free_p0@1))) (let ((.def_488 (ite .def_37 fluent_position_free_p2@1 .def_487))) (let ((.def_489 (= .def_488 true))) (let ((.def_490 (=> true .def_489))) (let ((.def_491 (and .def_33 .def_0))) (let ((.def_492 (ite .def_491 fluent_treated_plt1_t0@1 fluent_treated_plt0_t0@1))) (let ((.def_493 (= .def_492 true))) (let ((.def_494 (=> true .def_493))) (let ((.def_495 (and .def_29 .def_33))) (let ((.def_496 (ite .def_495 fluent_robot_has_r0_plt1@1 fluent_robot_has_r0_plt0@1))) (let ((.def_497 (= .def_496 true))) (let ((.def_498 (=> true .def_497))) (let ((.def_499 (and .def_33 .def_39))) (let ((.def_500 (ite .def_499 fluent_pallet_at_plt1_p0@1 fluent_pallet_at_plt0_p0@1))) (let ((.def_501 (and .def_34 .def_38))) (let ((.def_502 (ite .def_501 fluent_pallet_at_plt0_p1@1 .def_500))) (let ((.def_503 (and .def_33 .def_38))) (let ((.def_504 (ite .def_503 fluent_pallet_at_plt1_p1@1 .def_502))) (let ((.def_505 (and .def_34 .def_37))) (let ((.def_506 (ite .def_505 fluent_pallet_at_plt0_p2@1 .def_504))) (let ((.def_507 (and .def_33 .def_37))) (let ((.def_508 (ite .def_507 fluent_pallet_at_plt1_p2@1 .def_506))) (let ((.def_509 (= .def_508 false))) (let ((.def_510 (=> true .def_509))) (let ((.def_511 (and .def_33 .def_39 .def_0))) (let ((.def_512 (ite .def_511 fluent_ready_plt1_p0_t0@1 fluent_ready_plt0_p0_t0@1))) (let ((.def_513 (and .def_34 .def_38 .def_0))) (let ((.def_514 (ite .def_513 fluent_ready_plt0_p1_t0@1 .def_512))) (let ((.def_515 (and .def_33 .def_38 .def_0))) (let ((.def_516 (ite .def_515 fluent_ready_plt1_p1_t0@1 .def_514))) (let ((.def_517 (and .def_34 .def_37 .def_0))) (let ((.def_518 (ite .def_517 fluent_ready_plt0_p2_t0@1 .def_516))) (let ((.def_519 (and .def_33 .def_37 .def_0))) (let ((.def_520 (ite .def_519 fluent_ready_plt1_p2_t0@1 .def_518))) (let ((.def_521 (= .def_520 false))) (let ((.def_522 (=> true .def_521))) (let ((.def_523 (ite .def_499 fluent_pallet_at_plt1_p0@0 fluent_pallet_at_plt0_p0@0))) (let ((.def_524 (ite .def_501 fluent_pallet_at_plt0_p1@0 .def_523))) (let ((.def_525 (ite .def_503 fluent_pallet_at_plt1_p1@0 .def_524))) (let ((.def_526 (ite .def_505 fluent_pallet_at_plt0_p2@0 .def_525))) (let ((.def_527 (ite .def_507 fluent_pallet_at_plt1_p2@0 .def_526))) (let ((.def_528 (and .def_29 .def_38))) (let ((.def_529 (ite .def_528 fluent_robot_at_r0_p1@0 fluent_robot_at_r0_p0@0))) (let ((.def_530 (and .def_29 .def_37))) (let ((.def_531 (ite .def_530 fluent_robot_at_r0_p2@0 .def_529))) (let ((.def_532 (ite .def_511 fluent_ready_plt1_p0_t0@0 fluent_ready_plt0_p0_t0@0))) (let ((.def_533 (ite .def_513 fluent_ready_plt0_p1_t0@0 .def_532))) (let ((.def_534 (ite .def_515 fluent_ready_plt1_p1_t0@0 .def_533))) (let ((.def_535 (ite .def_517 fluent_ready_plt0_p2_t0@0 .def_534))) (let ((.def_536 (ite .def_519 fluent_ready_plt1_p2_t0@0 .def_535))) (let ((.def_537 (and .def_536 .def_531 fluent_robot_free_r0@0 .def_527 .def_473 .def_522 .def_510 .def_498 .def_494 .def_490))) (let ((.def_538 (=> act_load@1 .def_537))) (let ((.def_539 (and .def_13 .def_18))) (let ((.def_540 (ite .def_539 1.0 0.0))) (let ((.def_541 (and .def_12 .def_18))) (let ((.def_542 (ite .def_541 2.0 .def_540))) (let ((.def_543 (and .def_14 .def_17))) (let ((.def_544 (ite .def_543 1.0 .def_542))) (let ((.def_545 (and .def_13 .def_17))) (let ((.def_546 (ite .def_545 0.0 .def_544))) (let ((.def_547 (and .def_12 .def_17))) (let ((.def_548 (ite .def_547 1.0 .def_546))) (let ((.def_549 (and .def_14 .def_16))) (let ((.def_550 (ite .def_549 2.0 .def_548))) (let ((.def_551 (and .def_13 .def_16))) (let ((.def_552 (ite .def_551 1.0 .def_550))) (let ((.def_553 (and .def_12 .def_16))) (let ((.def_554 (ite .def_553 0.0 .def_552))) (let ((.def_555 (- fluent_battery_level_r0@0 .def_554))) (let ((.def_556 (= fluent_battery_level_r0@1 .def_555))) (let ((.def_557 (=> true .def_556))) (let ((.def_558 (and .def_11 .def_13))) (let ((.def_559 (ite .def_558 fluent_robot_at_r0_p1@1 fluent_robot_at_r0_p0@1))) (let ((.def_560 (and .def_11 .def_12))) (let ((.def_561 (ite .def_560 fluent_robot_at_r0_p2@1 .def_559))) (let ((.def_562 (= .def_561 false))) (let ((.def_563 (=> true .def_562))) (let ((.def_564 (and .def_11 .def_17))) (let ((.def_565 (ite .def_564 fluent_robot_at_r0_p1@1 fluent_robot_at_r0_p0@1))) (let ((.def_566 (and .def_11 .def_16))) (let ((.def_567 (ite .def_566 fluent_robot_at_r0_p2@1 .def_565))) (let ((.def_568 (= .def_567 true))) (let ((.def_569 (=> true .def_568))) (let ((.def_570 (<= .def_554 fluent_battery_level_r0@0))) (let ((.def_571 (ite .def_558 fluent_robot_at_r0_p1@0 fluent_robot_at_r0_p0@0))) (let ((.def_572 (ite .def_560 fluent_robot_at_r0_p2@0 .def_571))) (let ((.def_573 (= parameter_move_frompos@1 parameter_move_topos@1))) (let ((.def_574 (not .def_573))) (let ((.def_575 (and .def_574 .def_572 .def_570 .def_569 .def_563 .def_557))) (let ((.def_576 (=> act_move@1 .def_575))) (let ((.def_577 (<= fluent_battery_level_r0@0 100.0))) (let ((.def_578 (<= 0.0 fluent_battery_level_r0@0))) (let ((.def_579 (= false false))) (let ((.def_580 (= fluent_pallet_at_plt1_p1@0 false))) (let ((.def_581 (= fluent_pallet_at_plt0_p1@0 false))) (let ((.def_582 (= fluent_pallet_at_plt1_p0@0 false))) (let ((.def_583 (= fluent_pallet_at_plt0_p0@0 false))) (let ((.def_584 (= fluent_treated_plt1_t0@0 false))) (let ((.def_585 (= fluent_treated_plt0_t0@0 false))) (let ((.def_586 (= fluent_ready_plt1_p2_t0@0 false))) (let ((.def_587 (= fluent_ready_plt0_p2_t0@0 false))) (let ((.def_588 (= fluent_ready_plt1_p1_t0@0 false))) (let ((.def_589 (= fluent_ready_plt0_p1_t0@0 false))) (let ((.def_590 (= fluent_ready_plt1_p0_t0@0 false))) (let ((.def_591 (= fluent_ready_plt0_p0_t0@0 false))) (let ((.def_592 (= fluent_robot_has_r0_plt1@0 false))) (let ((.def_593 (= fluent_robot_has_r0_plt0@0 false))) (let ((.def_594 (= fluent_robot_at_r0_p1@0 false))) (let ((.def_595 (= fluent_robot_at_r0_p0@0 false))) (let ((.def_596 (= true true))) (let ((.def_597 (= fluent_position_free_p2@0 true))) (let ((.def_598 (= fluent_position_free_p1@0 true))) (let ((.def_599 (= fluent_position_free_p0@0 true))) (let ((.def_600 (= 0.0 0.0))) (let ((.def_601 (= 1.0 1.0))) (let ((.def_602 (= 2.0 2.0))) (let ((.def_603 (= fluent_battery_level_r0@0 12.0))) (let ((.def_604 (= fluent_pallet_at_plt1_p2@0 true))) (let ((.def_605 (= fluent_pallet_at_plt0_p2@0 true))) (let ((.def_606 (= fluent_robot_free_r0@0 true))) (let ((.def_607 (= fluent_robot_at_r0_p2@0 true))) (let ((.def_608 (and .def_607 .def_606 .def_605 .def_604 .def_603 .def_600 .def_601 .def_601 .def_602 .def_602 .def_600 .def_601 .def_601 .def_600 .def_596 .def_599 .def_598 .def_597 .def_596 .def_595 .def_594 .def_593 .def_592 .def_591 .def_590 .def_589 .def_588 .def_587 .def_586 .def_585 .def_584 .def_583 .def_582 .def_581 .def_580 .def_579 .def_579 .def_579 .def_579 .def_578 .def_577))) (let ((.def_609 (and .def_608 .def_576 .def_538 .def_486 .def_455 .def_430 .def_365 .def_364 true .def_335 .def_44 .def_40 .def_36 .def_35 .def_32 .def_29 .def_28 .def_27 .def_24 .def_23 .def_19 .def_15 .def_11 .def_10 .def_6 .def_5 .def_2 .def_1 .def_0 true))) .def_609)))))))))))))))))))))))))))))))))))))))))))))))))))))))))))))))))))))))))))))))))))))))))))))))))))))))))))))))))))))))))))))))))))))))))))))))))))))))))))))))))))))))))))))))))))))))))))))))))))))))))))))))))))))))))))))))))))))))))))))))))))))))))))))))))))))))))))))))))))))))))))))))))))))))))))))))))))))))))))))))))))))))))))))))))))))))))))))))))))))))))))))))))))))))))))))))))))))))))))))))))))))))))))))))))))))))))))))))))))))))))))))))))))))))))))))))))))))))))))))))))))))))))))))))))))))))))))))))))))))))))))))))))))))))))))))))))))))))))))))))))))))))))))))))))))))))))))))))))))))))))))))))))))
(check-sat)

--------------------------------------------------------------------------------
